
******************************************************************************
This program contains Ipopt, a library for large-scale nonlinear optimization.
 Ipopt is released as open source code under the Eclipse Public License (EPL).
         For more information visit http://projects.coin-or.org/Ipopt
******************************************************************************

This is Ipopt version 3.12.6, running with linear solver ma57.

Number of nonzeros in equality constraint Jacobian...:        0
Number of nonzeros in inequality constraint Jacobian.:        0
Number of nonzeros in Lagrangian Hessian.............:    19999

Total number of variables............................:    10000
                     variables with only lower bounds:        0
                variables with lower and upper bounds:        0
                     variables with only upper bounds:        0
Total number of equality constraints.................:        0
Total number of inequality constraints...............:        0
        inequality constraints with only lower bounds:        0
   inequality constraints with lower and upper bounds:        0
        inequality constraints with only upper bounds:        0

iter    objective    inf_pr   inf_du lg(mu)  ||d||  lg(rg) alpha_du alpha_pr  ls
   0  8.7749480e+03 0.00e+00 9.59e-01  -1.0 0.00e+00    -  0.00e+00 0.00e+00   0
   1  8.7208602e+03 0.00e+00 9.97e-01  -1.7 9.97e-03   2.0 1.00e+00 1.00e+00f  1
   2  8.5309130e+03 0.00e+00 1.13e+00  -1.7 3.39e-02   1.5 1.00e+00 1.00e+00f  1
   3  7.5238868e+03 0.00e+00 1.90e+00  -1.7 1.66e-01   1.0 1.00e+00 1.00e+00f  1
   4  6.9639894e+03 0.00e+00 2.26e+00  -1.7 7.65e-02   1.5 1.00e+00 1.00e+00f  1
   5  3.0642973e+03 0.00e+00 2.55e+00  -1.7 4.36e-01   1.0 1.00e+00 1.00e+00f  1
   6  8.1607179e+02 0.00e+00 2.58e+00  -1.7 1.00e-01   1.4 1.00e+00 1.00e+00f  1
   7 -8.7212441e+03 0.00e+00 2.02e+00  -1.7 5.56e-01   0.9 1.00e+00 1.00e+00f  1
   8 -9.9954693e+03 0.00e+00 1.75e-01  -1.7 1.76e-01   0.5 1.00e+00 1.00e+00f  1
   9 -9.9989848e+03 0.00e+00 9.55e-03  -2.5 1.14e-02  -0.0 1.00e+00 1.00e+00f  1
iter    objective    inf_pr   inf_du lg(mu)  ||d||  lg(rg) alpha_du alpha_pr  ls
  10 -9.9990000e+03 0.00e+00 2.12e-04  -3.8 6.68e-04  -0.5 1.00e+00 1.00e+00f  1
  11 -9.9990000e+03 0.00e+00 1.68e-06  -5.7 1.55e-05  -1.0 1.00e+00 1.00e+00f  1
  12 -9.9990000e+03 0.00e+00 4.68e-09  -8.6 1.30e-07  -1.4 1.00e+00 1.00e+00f  1

Number of Iterations....: 12

                                   (scaled)                 (unscaled)
Objective...............:  -9.9990000000000000e+03   -9.9990000000000000e+03
Dual infeasibility......:   4.6785315016300029e-09    4.6785315016300029e-09
Constraint violation....:   0.0000000000000000e+00    0.0000000000000000e+00
Complementarity.........:   0.0000000000000000e+00    0.0000000000000000e+00
Overall NLP error.......:   4.6785315016300029e-09    4.6785315016300029e-09


Number of objective function evaluations             = 13
Number of objective gradient evaluations             = 13
Number of equality constraint evaluations            = 0
Number of inequality constraint evaluations          = 0
Number of equality constraint Jacobian evaluations   = 0
Number of inequality constraint Jacobian evaluations = 0
Number of Lagrangian Hessian evaluations             = 12
Total CPU secs in IPOPT (w/o function evaluations)   =      0.080
Total CPU secs in NLP function evaluations           =      0.050

EXIT: Optimal Solution Found.
Note: The following floating-point exceptions are signalling: IEEE_UNDERFLOW_FLAG IEEE_DENORMAL

 ** SUBROUTINE CUTEST_csetup: Warning. The problem has no general constraints. 
 ** Other tools may be preferable ** 

************************ CUTEst statistics ************************


 Package used            :  IPOPT
 Problem                 :  COSINE    
 # variables             =           10000
 # constraints           =               0
 # objective functions   =        0.2700000E+02
 # objective gradients   =        0.1400000E+02
 # objective Hessians    =        0.1300000E+02
 # Hessian-vector prdct  =        0.0000000E+00
 # constraints functions =        0.0000000E+00
 # constraints gradients =        0.0000000E+00
 # constraints Hessians  =        0.0000000E+00
 Exit code               =               0
 Final f                 =  -0.9999000E+04
 Set up time             =            0.17 seconds
 Solve time              =            0.24 seconds


******************************************************************

System Time =       0.1280000061 s.
